<number of tasks>
250

<cycle time>
1000

<order strength>
0.596


<task times>
1 132
2 259
3 83
4 283
5 126
6 263
7 89
8 86
9 117
10 180
11 86
12 140
13 248
14 241
15 70
16 68
17 125
18 105
19 63
20 57
21 50
22 139
23 169
24 33
25 66
26 304
27 135
28 81
29 380
30 132
31 187
32 268
33 181
34 42
35 149
36 142
37 63
38 107
39 303
40 124
41 144
42 289
43 138
44 30
45 249
46 74
47 25
48 126
49 66
50 195
51 176
52 144
53 71
54 197
55 201
56 64
57 24
58 193
59 427
60 70
61 82
62 96
63 47
64 228
65 125
66 192
67 184
68 141
69 224
70 41
71 308
72 79
73 105
74 203
75 137
76 150
77 79
78 73
79 51
80 333
81 340
82 151
83 80
84 338
85 251
86 184
87 145
88 128
89 162
90 329
91 34
92 74
93 283
94 117
95 40
96 35
97 279
98 53
99 86
100 103
101 88
102 213
103 48
104 80
105 188
106 85
107 84
108 130
109 152
110 180
111 184
112 322
113 129
114 235
115 210
116 20
117 175
118 36
119 149
120 52
121 20
122 88
123 183
124 166
125 123
126 144
127 94
128 240
129 316
130 150
131 212
132 66
133 135
134 120
135 176
136 156
137 324
138 127
139 92
140 94
141 150
142 50
143 152
144 61
145 295
146 88
147 104
148 79
149 205
150 197
151 193
152 81
153 107
154 101
155 61
156 53
157 95
158 276
159 256
160 181
161 167
162 144
163 169
164 99
165 25
166 128
167 202
168 21
169 140
170 245
171 54
172 41
173 83
174 107
175 214
176 71
177 56
178 96
179 55
180 208
181 74
182 81
183 176
184 140
185 251
186 167
187 58
188 132
189 56
190 265
191 144
192 116
193 178
194 129
195 71
196 105
197 153
198 126
199 21
200 97
201 79
202 179
203 144
204 243
205 103
206 310
207 142
208 200
209 50
210 205
211 186
212 196
213 84
214 120
215 49
216 91
217 122
218 154
219 35
220 131
221 147
222 48
223 219
224 161
225 47
226 38
227 80
228 261
229 102
230 245
231 107
232 65
233 24
234 162
235 158
236 81
237 192
238 56
239 194
240 98
241 62
242 86
243 215
244 207
245 139
246 132
247 220
248 28
249 25
250 50

<precedence relations>
1,6
2,7
3,5
3,8
3,9
3,10
3,11
4,8
4,11
5,12
6,13
7,14
8,14
9,14
9,15
10,14
10,15
11,14
11,15
12,16
13,17
14,18
14,19
14,20
14,21
14,22
14,23
15,19
15,20
15,21
15,22
15,23
16,24
17,25
18,28
19,26
19,27
19,29
19,30
19,31
19,37
20,29
20,30
20,31
21,51
22,29
22,30
22,31
22,37
23,29
23,30
23,31
24,32
25,37
26,33
27,34
28,36
29,35
29,61
30,39
30,47
31,38
31,40
31,46
32,44
33,45
34,41
35,42
36,43
37,61
37,62
37,63
38,44
38,56
39,44
39,46
39,56
40,44
40,47
41,49
42,48
43,50
44,51
44,52
44,53
44,54
44,55
45,55
45,96
46,51
46,52
46,53
47,51
47,52
47,54
47,55
47,56
47,63
48,57
49,58
50,59
51,66
51,93
52,59
52,62
52,69
53,59
53,60
53,61
53,62
53,63
54,59
54,60
54,61
54,62
55,59
56,67
57,64
58,68
59,65
59,76
60,66
60,67
61,66
61,67
61,69
62,66
62,67
62,68
62,70
63,66
63,70
63,112
64,71
65,75
66,72
66,74
66,76
66,77
66,78
66,79
67,73
67,76
67,79
68,85
68,86
68,125
69,76
69,77
69,112
70,76
70,77
71,80
72,81
73,82
74,83
75,85
76,87
76,105
77,84
77,86
78,84
78,85
78,104
78,125
79,86
80,88
81,92
82,93
83,90
84,89
84,91
84,94
85,111
86,95
86,96
86,104
87,92
88,97
89,98
90,100
91,101
92,99
92,102
92,103
92,104
93,106
94,103
94,126
95,107
95,116
96,102
96,105
96,107
97,108
98,109
99,110
100,113
101,111
102,114
102,115
103,134
104,111
105,116
106,111
106,112
108,117
109,119
110,121
111,118
111,142
112,120
112,124
113,123
113,125
114,122
114,123
115,126
115,205
116,123
116,124
116,126
117,127
118,128
119,133
120,129
121,130
122,132
123,131
123,135
124,133
124,134
125,149
125,205
126,133
126,198
127,136
128,140
129,137
130,138
131,139
132,141
133,171
133,228
134,143
135,142
136,144
137,145
138,147
139,149
140,146
141,147
142,147
142,148
142,149
142,150
142,151
142,152
142,153
143,149
143,150
143,182
144,155
145,156
146,159
147,154
147,158
148,157
148,158
148,184
149,171
149,203
149,206
150,158
150,162
151,159
152,160
152,161
153,158
154,164
155,163
156,165
157,166
158,167
158,168
158,169
158,172
158,192
158,219
159,214
160,169
160,172
160,219
161,170
161,171
161,198
161,207
162,169
162,199
163,173
164,181
165,176
166,178
167,179
168,180
169,174
169,177
169,181
169,197
170,175
170,182
170,183
171,184
171,229
172,221
173,185
174,186
175,187
176,189
177,188
178,191
179,191
180,190
181,203
181,221
182,224
183,192
183,215
185,194
186,196
187,197
188,193
189,195
190,198
191,198
191,199
192,222
193,203
194,200
195,201
196,202
197,220
198,204
198,206
199,205
199,207
200,208
201,209
202,210
203,212
203,215
205,211
205,225
205,228
206,213
206,214
206,216
206,222
207,220
208,219
209,218
210,220
211,217
211,235
212,222
214,221
215,243
217,223
218,224
219,237
220,224
221,224
222,224
222,225
223,226
224,227
224,228
224,229
224,230
225,227
226,231
227,232
227,233
229,233
229,234
229,235
229,236
229,237
229,238
231,239
232,241
233,240
234,242
234,243
234,244
239,245
240,246
241,248
242,247
244,249
244,250

<end>
